c File  p_hat300-2.clq
c
c Source: P. Soriano and M. Gendreau at  patrick@crt.umontreal.ca
c
c Reference: p-hat graphs are generated with the p-hat generator
c 	      which is a generalisation of the classical uniform
c 	      random graph generator.
c 	      Graphs generated with p-hat have wider node degree spread
c 	      and larger cliques than uniform graphs.
c
c NOTE: September 23, 1993 Corrected corrupted file at DIMACS.
c
c
c Generation parameters: 
c 	n =    300 a =  0.00  b =  1.00  Expected density =  0.50
c	Seed =       8713       Real density =  0.489
c
p edge  300     21928	
e 4 3
e 5 1
e 5 2
e 5 3
e 5 4
e 6 5
e 7 1
e 7 3
e 7 4
e 7 6
e 8 4
e 9 1
e 9 3
e 9 5
e 9 6
e 9 7
e 10 3
e 10 5
e 10 6
e 10 7
e 11 4
e 11 5
e 12 1
e 12 4
e 13 2
e 13 3
e 13 4
e 13 8
e 13 9
e 13 10
e 14 5
e 14 6
e 14 13
e 15 5
e 15 7
e 15 11
e 15 14
e 16 1
e 16 2
e 16 5
e 16 7
e 16 13
e 17 9
e 17 13
e 17 15
e 18 3
e 18 4
e 18 8
e 18 11
e 18 14
e 18 15
e 18 16
e 18 17
e 19 3
e 19 4
e 19 5
e 19 6
e 19 7
e 19 8
e 19 9
e 19 10
e 19 11
e 19 13
e 19 14
e 19 16
e 19 18
e 20 4
e 20 5
e 20 11
e 20 13
e 20 14
e 20 17
e 20 18
e 20 19
e 21 3
e 21 4
e 21 5
e 21 6
e 21 8
e 21 9
e 21 10
e 21 11
e 21 12
e 21 13
e 21 14
e 21 16
e 21 18
e 21 19
e 21 20
e 22 4
e 22 9
e 22 12
e 22 20
e 23 5
e 23 9
e 23 15
e 23 19
e 23 20
e 24 1
e 24 4
e 24 10
e 24 11
e 24 13
e 24 15
e 24 16
e 24 17
e 24 19
e 24 21
e 24 22
e 24 23
e 25 3
e 25 4
e 25 5
e 25 7
e 25 8
e 25 9
e 25 10
e 25 12
e 25 18
e 25 20
e 25 21
e 25 22
e 25 24
e 26 1
e 26 2
e 26 3
e 26 4
e 26 5
e 26 6
e 26 7
e 26 8
e 26 10
e 26 13
e 26 18
e 26 19
e 26 20
e 26 21
e 26 25
e 27 4
e 27 5
e 27 13
e 27 17
e 27 19
e 27 21
e 27 22
e 27 24
e 28 2
e 28 3
e 28 4
e 28 5
e 28 6
e 28 11
e 28 13
e 28 14
e 28 15
e 28 17
e 28 18
e 28 21
e 28 23
e 28 25
e 28 26
e 29 1
e 29 2
e 29 3
e 29 4
e 29 5
e 29 9
e 29 11
e 29 12
e 29 13
e 29 16
e 29 18
e 29 19
e 29 23
e 29 25
e 29 26
e 29 28
e 30 1
e 30 2
e 30 4
e 30 9
e 30 12
e 30 20
e 30 21
e 30 23
e 30 24
e 30 28
e 30 29
e 31 1
e 31 3
e 31 11
e 31 13
e 31 14
e 31 15
e 31 16
e 31 17
e 31 18
e 31 19
e 31 20
e 31 21
e 31 22
e 31 24
e 31 27
e 31 30
e 32 2
e 32 3
e 32 4
e 32 6
e 32 7
e 32 12
e 32 13
e 32 14
e 32 15
e 32 18
e 32 19
e 32 21
e 32 23
e 32 24
e 32 25
e 32 26
e 32 27
e 32 28
e 33 3
e 33 4
e 33 5
e 33 11
e 33 12
e 33 13
e 33 14
e 33 16
e 33 17
e 33 18
e 33 19
e 33 20
e 33 21
e 33 22
e 33 24
e 33 25
e 33 26
e 33 28
e 33 31
e 34 9
e 34 15
e 34 17
e 34 18
e 34 19
e 34 21
e 34 23
e 34 26
e 34 27
e 34 29
e 34 30
e 34 31
e 34 32
e 35 2
e 35 3
e 35 4
e 35 7
e 35 9
e 35 13
e 35 16
e 35 18
e 35 19
e 35 24
e 35 25
e 35 29
e 35 34
e 36 5
e 36 6
e 36 7
e 36 8
e 36 9
e 36 13
e 36 15
e 36 17
e 36 19
e 36 21
e 36 24
e 36 25
e 36 29
e 36 31
e 36 32
e 36 33
e 37 2
e 37 4
e 37 7
e 37 13
e 37 15
e 37 18
e 37 20
e 37 23
e 37 24
e 37 26
e 37 30
e 37 33
e 37 35
e 38 4
e 38 5
e 38 8
e 38 9
e 38 10
e 38 13
e 38 15
e 38 16
e 38 17
e 38 19
e 38 20
e 38 21
e 38 22
e 38 23
e 38 24
e 38 25
e 38 26
e 38 27
e 38 28
e 38 29
e 38 30
e 38 31
e 38 32
e 38 33
e 38 35
e 38 36
e 38 37
e 39 6
e 39 8
e 39 10
e 39 13
e 39 15
e 39 18
e 39 21
e 39 26
e 39 28
e 39 36
e 39 38
e 40 1
e 40 4
e 40 7
e 40 8
e 40 9
e 40 10
e 40 11
e 40 13
e 40 14
e 40 15
e 40 16
e 40 18
e 40 19
e 40 20
e 40 21
e 40 22
e 40 23
e 40 24
e 40 25
e 40 26
e 40 27
e 40 28
e 40 30
e 40 32
e 40 33
e 40 36
e 40 37
e 40 38
e 40 39
e 41 3
e 41 4
e 41 7
e 41 8
e 41 14
e 41 16
e 41 18
e 41 25
e 41 26
e 41 27
e 41 30
e 41 33
e 41 38
e 41 40
e 42 1
e 42 3
e 42 4
e 42 7
e 42 8
e 42 9
e 42 10
e 42 13
e 42 14
e 42 18
e 42 23
e 42 24
e 42 27
e 42 28
e 42 31
e 42 32
e 42 33
e 42 35
e 42 36
e 42 38
e 43 1
e 43 4
e 43 8
e 43 9
e 43 10
e 43 12
e 43 13
e 43 14
e 43 16
e 43 17
e 43 18
e 43 19
e 43 20
e 43 21
e 43 22
e 43 27
e 43 29
e 43 30
e 43 31
e 43 32
e 43 33
e 43 35
e 43 36
e 43 37
e 43 38
e 43 40
e 43 41
e 44 3
e 44 4
e 44 8
e 44 9
e 44 13
e 44 15
e 44 16
e 44 20
e 44 21
e 44 23
e 44 24
e 44 25
e 44 27
e 44 29
e 44 30
e 44 32
e 44 33
e 44 34
e 44 35
e 44 36
e 44 37
e 44 38
e 44 39
e 44 40
e 44 41
e 44 43
e 45 1
e 45 4
e 45 8
e 45 9
e 45 12
e 45 13
e 45 16
e 45 17
e 45 18
e 45 19
e 45 22
e 45 23
e 45 28
e 45 30
e 45 31
e 45 32
e 45 33
e 45 34
e 45 36
e 45 37
e 45 39
e 45 40
e 45 43
e 45 44
